solution status: time limit reached
objective value:                                   88
shell_j_$_127                                       1 	(obj:0)
shell_j_$_102                                       1 	(obj:0)
shell_j_$_96__8                                     1 	(obj:0)
shell_j_$_64                                        1 	(obj:0)
shell_j_$_104                                       1 	(obj:0)
shell_j_$_93                                        1 	(obj:0)
shell_j_$_112                                       1 	(obj:0)
shell_j_$_126                                       1 	(obj:0)
shell_j_$_18                                        1 	(obj:0)
shell_j_$_8                                         1 	(obj:0)
shell_i_$_123__8                                    1 	(obj:0)
shell_j_$_7                                         1 	(obj:0)
shell_j_$_136                                       1 	(obj:0)
shell_j_$_47                                        1 	(obj:0)
shell_j_$_17                                        1 	(obj:0)
shell_j_$_88                                        1 	(obj:0)
shell_j_$_16                                        1 	(obj:0)
shell_j_$_44                                        1 	(obj:0)
shell_i_$_86                                        1 	(obj:0)
shell_j_$_120                                       1 	(obj:0)
shell_j_$_116                                       1 	(obj:0)
shell_i_$_77                                        1 	(obj:0)
shell_j_$_129                                       1 	(obj:0)
shell_j_$_48                                        1 	(obj:0)
shell_j_$_148__8                                    1 	(obj:0)
shell_j_$_125                                       1 	(obj:0)
shell_j_$_90                                        1 	(obj:0)
shell_j_$_114                                       1 	(obj:0)
shell_j_$_65                                        1 	(obj:0)
shell_j_$_122__8                                    1 	(obj:0)
shell_j_$_5                                         1 	(obj:0)
shell_j_$_118                                       1 	(obj:0)
shell_j_$_139                                       1 	(obj:0)
shell_j_$_92                                        1 	(obj:0)
shell_j_$_89                                        1 	(obj:0)
shell_j_$_100                                       1 	(obj:0)
shell_j_$_98__8                                     1 	(obj:0)
shell_j_$_140                                       1 	(obj:0)
shell_i_$_26                                        1 	(obj:0)
shell_j_$_147__8                                    1 	(obj:0)
shell_j_$_19                                        1 	(obj:0)
shell_j_$_84                                        1 	(obj:0)
shell_j_$_9                                         1 	(obj:0)
shell_j_$_2                                         1 	(obj:0)
shell_j_$_117                                       1 	(obj:0)
shell_j_$_128                                       1 	(obj:0)
shell_j_$_124                                       1 	(obj:0)
shell_i_$_3                                         1 	(obj:0)
shell_j_$_143                                       1 	(obj:0)
shell_j_$_4                                         1 	(obj:0)
shell_j_$_82                                        1 	(obj:0)
shell_i_$_22                                        1 	(obj:0)
shell_j_$_135                                       1 	(obj:0)
shell_j_$_101                                       1 	(obj:0)
shell_j_$_12                                        1 	(obj:0)
shell_j_$_113                                       1 	(obj:0)
$_129_z                                            13 	(obj:0)
$_64_z                                             14 	(obj:0)
$_8_x                                              -2 	(obj:0)
$_48_x                                             -6 	(obj:0)
$_48_y                                             10 	(obj:0)
$_48_z                                             16 	(obj:0)
$_8_y                                              10 	(obj:0)
$_8_z                                              14 	(obj:0)
$_148__8_x                                          1 	(obj:0)
$_148__8_y                                         10 	(obj:0)
$_148__8_z                                         14 	(obj:0)
$_102_y                                            10 	(obj:0)
$_102_z                                            17 	(obj:0)
$_125_x                                            -4 	(obj:0)
$_125_y                                            10 	(obj:0)
$_125_z                                            13 	(obj:0)
$_123__8_x                                        -10 	(obj:0)
$_123__8_y                                          4 	(obj:0)
$_90_x                                             -9 	(obj:0)
$_90_y                                             10 	(obj:0)
$_90_z                                             13 	(obj:0)
$_123__8_z                                         17 	(obj:0)
$_104_x                                            -3 	(obj:0)
$_114_x                                            -8 	(obj:0)
$_114_y                                            10 	(obj:0)
$_114_z                                            15 	(obj:0)
$_104_y                                            10 	(obj:0)
$_7_x                                              -6 	(obj:0)
$_65_x                                             -3 	(obj:0)
$_65_y                                             10 	(obj:0)
$_65_z                                             14 	(obj:0)
$_7_y                                              10 	(obj:0)
$_7_z                                              15 	(obj:0)
$_122__8_x                                         -4 	(obj:0)
$_122__8_y                                         10 	(obj:0)
$_122__8_z                                         22 	(obj:0)
$_104_z                                            12 	(obj:0)
$_127_z                                            15 	(obj:0)
$_5_x                                               1 	(obj:0)
$_5_y                                              10 	(obj:0)
$_5_z                                               9 	(obj:0)
$_136_x                                            -6 	(obj:0)
$_136_y                                            10 	(obj:0)
$_118_x                                            -7 	(obj:0)
$_118_y                                            10 	(obj:0)
$_118_z                                            11 	(obj:0)
$_136_z                                            11 	(obj:0)
$_127_x                                            -4 	(obj:0)
$_139_x                                            -5 	(obj:0)
$_139_y                                            10 	(obj:0)
$_139_z                                            16 	(obj:0)
$_93_x                                             -6 	(obj:0)
$_47_x                                             -2 	(obj:0)
$_92_x                                             -6 	(obj:0)
$_92_y                                             10 	(obj:0)
$_92_z                                             12 	(obj:0)
$_47_y                                             10 	(obj:0)
$_47_z                                             19 	(obj:0)
$_89_x                                             -6 	(obj:0)
$_89_y                                             10 	(obj:0)
$_89_z                                             14 	(obj:0)
$_93_y                                             10 	(obj:0)
$_93_z                                             18 	(obj:0)
$_100_x                                            -4 	(obj:0)
$_100_y                                            10 	(obj:0)
$_100_z                                            19 	(obj:0)
$_17_x                                             -6 	(obj:0)
$_17_y                                             10 	(obj:0)
$_98__8_x                                          -4 	(obj:0)
$_98__8_y                                          10 	(obj:0)
$_98__8_z                                          16 	(obj:0)
$_17_z                                             17 	(obj:0)
$_96__8_x                                          -2 	(obj:0)
$_140_x                                            -5 	(obj:0)
$_140_y                                            10 	(obj:0)
$_140_z                                            11 	(obj:0)
$_96__8_y                                          10 	(obj:0)
$_88_x                                             -3 	(obj:0)
$_26_x                                            -10 	(obj:0)
$_26_y                                              4 	(obj:0)
$_26_z                                             13 	(obj:0)
$_88_y                                             10 	(obj:0)
$_88_z                                             16 	(obj:0)
$_147__8_x                                          1 	(obj:0)
$_147__8_y                                         10 	(obj:0)
$_147__8_z                                         19 	(obj:0)
$_112_x                                            -8 	(obj:0)
$_112_y                                            10 	(obj:0)
$_19_y                                             10 	(obj:0)
$_19_z                                             19 	(obj:0)
$_16_x                                             -3 	(obj:0)
$_16_y                                             10 	(obj:0)
$_84_x                                             -7 	(obj:0)
$_84_y                                             10 	(obj:0)
$_84_z                                             15 	(obj:0)
$_16_z                                              9 	(obj:0)
$_112_z                                            13 	(obj:0)
$_9_x                                              -7 	(obj:0)
$_9_y                                              10 	(obj:0)
$_9_z                                              14 	(obj:0)
$_96__8_z                                          20 	(obj:0)
$_44_x                                             -5 	(obj:0)
$_2_x                                              -6 	(obj:0)
$_2_y                                              10 	(obj:0)
$_2_z                                               9 	(obj:0)
$_44_y                                             10 	(obj:0)
$_44_z                                             13 	(obj:0)
$_117_x                                            -7 	(obj:0)
$_117_y                                            10 	(obj:0)
$_117_z                                            16 	(obj:0)
$_127_y                                            10 	(obj:0)
$_126_x                                            -7 	(obj:0)
$_128_x                                            -5 	(obj:0)
$_128_y                                            10 	(obj:0)
$_128_z                                            14 	(obj:0)
$_86_x                                            -10 	(obj:0)
$_86_y                                              6 	(obj:0)
$_124_x                                            -5 	(obj:0)
$_124_y                                            10 	(obj:0)
$_124_z                                            15 	(obj:0)
$_86_z                                             13 	(obj:0)
$_126_y                                            10 	(obj:0)
$_3_x                                             -10 	(obj:0)
$_3_y                                               4 	(obj:0)
$_3_z                                              15 	(obj:0)
$_126_z                                            13 	(obj:0)
$_120_x                                            -4 	(obj:0)
$_143_x                                            -1 	(obj:0)
$_143_y                                            10 	(obj:0)
$_143_z                                            15 	(obj:0)
$_120_y                                            10 	(obj:0)
$_120_z                                            18 	(obj:0)
$_4_x                                              -8 	(obj:0)
$_4_y                                              10 	(obj:0)
$_4_z                                              16 	(obj:0)
$_102_x                                            -5 	(obj:0)
$_64_x                                             -4 	(obj:0)
$_82_x                                             -7 	(obj:0)
$_82_y                                             10 	(obj:0)
$_82_z                                             12 	(obj:0)
$_116_x                                            -6 	(obj:0)
$_116_y                                            10 	(obj:0)
$_22_x                                            -10 	(obj:0)
$_22_y                                              4 	(obj:0)
$_22_z                                             22 	(obj:0)
$_116_z                                            13 	(obj:0)
$_18_x                                             -8 	(obj:0)
$_135_x                                            -3 	(obj:0)
$_135_y                                            10 	(obj:0)
$_135_z                                            15 	(obj:0)
$_18_y                                             10 	(obj:0)
$_77_x                                            -10 	(obj:0)
$_101_x                                            -4 	(obj:0)
$_101_y                                            10 	(obj:0)
$_101_z                                            17 	(obj:0)
$_77_y                                              9 	(obj:0)
$_77_z                                             13 	(obj:0)
$_12_y                                             10 	(obj:0)
$_12_z                                             22 	(obj:0)
$_18_z                                             10 	(obj:0)
$_64_y                                             10 	(obj:0)
$_113_x                                            -8 	(obj:0)
$_113_y                                            10 	(obj:0)
$_113_z                                            14 	(obj:0)
$_129_x                                            -3 	(obj:0)
$_129_y                                            10 	(obj:0)
x287                                                2 	(obj:1)
x290                                                2 	(obj:1)
x302                                                2 	(obj:1)
x304                                                1 	(obj:1)
x306                                                3 	(obj:1)
x308                                                2 	(obj:1)
x312                                                4 	(obj:1)
x314                                                1 	(obj:1)
x320                                                1 	(obj:1)
x324                                                2 	(obj:1)
x326                                                1 	(obj:1)
x334                                                1 	(obj:1)
x335                                                2 	(obj:1)
x338                                                4 	(obj:1)
x344                                                1 	(obj:1)
x347                                                2 	(obj:1)
x356                                                2 	(obj:1)
x359                                                1 	(obj:1)
x361                                                1 	(obj:1)
x365                                                2 	(obj:1)
x368                                                1 	(obj:1)
x371                                                2 	(obj:1)
x377                                                1 	(obj:1)
x383                                                3 	(obj:1)
x387                                                4 	(obj:1)
x389                                                1 	(obj:1)
x391                                                1 	(obj:1)
x394                                                1 	(obj:1)
x395                                                2 	(obj:1)
x398                                                1 	(obj:1)
x400                                                1 	(obj:1)
x401                                                1 	(obj:1)
x404                                                1 	(obj:1)
x405                                                4 	(obj:1)
x407                                                1 	(obj:1)
x419                                                2 	(obj:1)
x420                                                2 	(obj:1)
x422                                                2 	(obj:1)
x425                                                1 	(obj:1)
x438                                                2 	(obj:1)
x442                                                1 	(obj:1)
x445                                                2 	(obj:1)
x449                                                1 	(obj:1)
x454                                                2 	(obj:1)
x455                                                2 	(obj:1)
x463                                                1 	(obj:1)
x468                                                2 	(obj:1)
x483                                                1 	(obj:1)
x491                                                2 	(obj:1)
x495                                                3 	(obj:1)
